; vmt-chc-benchmarks/./cav12/array_max-2_000.smt2
(set-logic HORN)

(declare-fun |state| ( Bool Bool Bool Bool Real Real Real Real Real Real Real Real Real Real Real Real Real Real Real Real Real Real Real Real Real Real Real Real Real Real Real ) Bool)

(assert
  (forall ( (A Bool) (B Bool) (C Bool) (D Real) (E Real) (F Real) (G Real) (H Real) (I Real) (J Real) (K Real) (L Real) (M Real) (N Real) (O Real) (P Real) (Q Real) (R Real) (S Real) (T Real) (U Real) (V Real) (W Real) (X Real) (Y Real) (Z Real) (A1 Real) (B1 Real) (C1 Real) (D1 Real) (E1 Bool) ) 
    (=>
      (and
        (and (not B) (not C) (not E1) (not A))
      )
      (state B A C E1 E F G H I K L M N O P Q S T U V W X Y Z A1 B1 C1 D1 D J R)
    )
  )
)
(assert
  (forall ( (A Bool) (B Bool) (C Bool) (D Bool) (E Bool) (F Bool) (G Bool) (H Real) (I Real) (J Real) (K Real) (L Real) (M Real) (N Real) (O Real) (P Real) (Q Real) (R Real) (S Real) (T Real) (U Real) (V Real) (W Real) (X Real) (Y Real) (Z Real) (A1 Real) (B1 Real) (C1 Real) (D1 Real) (E1 Real) (F1 Real) (G1 Real) (H1 Real) (I1 Real) (J1 Real) (K1 Real) (L1 Real) (M1 Real) (N1 Real) (O1 Real) (P1 Real) (Q1 Real) (R1 Real) (S1 Real) (T1 Real) (U1 Real) (V1 Real) (W1 Real) (X1 Real) (Y1 Real) (Z1 Real) (A2 Real) (B2 Real) (C2 Real) (D2 Real) (E2 Real) (F2 Real) (G2 Real) (H2 Real) (I2 Real) (J2 Real) (K2 Real) (L2 Real) (M2 Real) (N2 Real) (O2 Real) (P2 Real) (Q2 Real) (R2 Bool) ) 
    (=>
      (and
        (state B
       A
       E
       R2
       K
       M
       O
       Q
       S
       W
       Y
       A1
       C1
       E1
       G1
       I1
       M1
       O1
       Q1
       S1
       U1
       W1
       Y1
       A2
       C2
       E2
       G2
       I2
       H
       T
       J1)
        (let ((a!1 (and (= P1 H)
                (not (= P1 0.0))
                (= P1 5.0)
                (not (= P1 4.0))
                (not (= P1 3.0))
                (not (= P1 2.0))
                (not (= P1 1.0))
                (= I1 K2)
                (= L1 L2)
                (= (+ L1 (* (- 1.0) H)) 1.0)))
      (a!2 (and (= G1 L2)
                (= P1 H)
                (not (= P1 0.0))
                (= P1 6.0)
                (not (= P1 5.0))
                (not (= P1 4.0))
                (not (= P1 3.0))
                (not (= P1 2.0))
                (not (= P1 1.0))
                (= L1 K2)
                (= (+ L1 (* (- 1.0) H)) 1.0)))
      (a!3 (and (= G1 L2)
                (= P1 H)
                (not (= P1 0.0))
                (= P1 4.0)
                (not (= P1 3.0))
                (not (= P1 2.0))
                (not (= P1 1.0))
                (= I1 K2)
                (= L1 M2)
                (= (+ L1 (* (- 1.0) H)) 1.0)))
      (a!5 (and (= E1 M2)
                (= G1 L2)
                (= P1 H)
                (not (= P1 0.0))
                (= P1 3.0)
                (not (= P1 2.0))
                (not (= P1 1.0))
                (= I1 K2)
                (= L1 N2)
                (= (+ L1 (* (- 1.0) H)) 1.0)))
      (a!6 (and (= C1 N2)
                (= E1 M2)
                (= G1 L2)
                (= P1 H)
                (not (= P1 0.0))
                (= P1 2.0)
                (not (= P1 1.0))
                (= I1 K2)
                (= L1 O2)
                (= (+ L1 (* (- 1.0) H)) 1.0)))
      (a!8 (and (= A1 O2)
                (= C1 N2)
                (= E1 M2)
                (= G1 L2)
                (= P1 H)
                (not (= P1 0.0))
                (= P1 1.0)
                (= I1 K2)
                (= L1 P2)
                (= (+ L1 (* (- 1.0) H)) 1.0)))
      (a!9 (and (= W P2)
                (= A1 O2)
                (= C1 N2)
                (= E1 M2)
                (= G1 L2)
                (= P1 H)
                (= P1 0.0)
                (= I1 K2)
                (= L1 J2)
                (= (+ L1 (* (- 1.0) H)) 1.0)))
      (a!10 (or (= J1 0.0)
                (= J1 6.0)
                (= J1 5.0)
                (= J1 4.0)
                (= J1 3.0)
                (= J1 2.0)
                (= J1 1.0)))
      (a!24 (and (= P1 H)
                 (not (= P1 0.0))
                 (= P1 5.0)
                 (not (= P1 4.0))
                 (not (= P1 3.0))
                 (not (= P1 2.0))
                 (not (= P1 1.0))
                 (= I1 H1)
                 (= F1 L1)
                 (= (+ L1 (* (- 1.0) H)) 1.0)))
      (a!25 (and (= G1 F1)
                 (= P1 H)
                 (not (= P1 0.0))
                 (= P1 6.0)
                 (not (= P1 5.0))
                 (not (= P1 4.0))
                 (not (= P1 3.0))
                 (not (= P1 2.0))
                 (not (= P1 1.0))
                 (= H1 L1)
                 (= (+ L1 (* (- 1.0) H)) 1.0)))
      (a!26 (and (= G1 F1)
                 (= P1 H)
                 (not (= P1 0.0))
                 (= P1 4.0)
                 (not (= P1 3.0))
                 (not (= P1 2.0))
                 (not (= P1 1.0))
                 (= I1 H1)
                 (= D1 L1)
                 (= (+ L1 (* (- 1.0) H)) 1.0)))
      (a!28 (and (= E1 D1)
                 (= G1 F1)
                 (= P1 H)
                 (not (= P1 0.0))
                 (= P1 3.0)
                 (not (= P1 2.0))
                 (not (= P1 1.0))
                 (= I1 H1)
                 (= B1 L1)
                 (= (+ L1 (* (- 1.0) H)) 1.0)))
      (a!29 (and (= C1 B1)
                 (= E1 D1)
                 (= G1 F1)
                 (= P1 H)
                 (not (= P1 0.0))
                 (= P1 2.0)
                 (not (= P1 1.0))
                 (= I1 H1)
                 (= Z L1)
                 (= (+ L1 (* (- 1.0) H)) 1.0)))
      (a!31 (and (= A1 Z)
                 (= C1 B1)
                 (= E1 D1)
                 (= G1 F1)
                 (= P1 H)
                 (not (= P1 0.0))
                 (= P1 1.0)
                 (= I1 H1)
                 (= V L1)
                 (= (+ L1 (* (- 1.0) H)) 1.0)))
      (a!32 (and (= W V)
                 (= A1 Z)
                 (= C1 B1)
                 (= E1 D1)
                 (= G1 F1)
                 (= P1 H)
                 (= P1 0.0)
                 (= I1 H1)
                 (= U L1)
                 (= (+ L1 (* (- 1.0) H)) 1.0)))
      (a!41 (or (and (= O B2) (= B2 0.0) (= P T))
                (and (= O B2) (not (= B2 0.0)) (= B2 1.0) (= P W))
                (and (= O B2)
                     (not (= B2 0.0))
                     (= B2 2.0)
                     (not (= B2 1.0))
                     (= P A1))
                (and (= O B2)
                     (not (= B2 0.0))
                     (= B2 3.0)
                     (not (= B2 2.0))
                     (not (= B2 1.0))
                     (= P C1))
                (and (= O B2)
                     (not (= B2 0.0))
                     (= B2 4.0)
                     (not (= B2 3.0))
                     (not (= B2 2.0))
                     (not (= B2 1.0))
                     (= P E1))
                (and (= O B2)
                     (not (= B2 0.0))
                     (= B2 5.0)
                     (not (= B2 4.0))
                     (not (= B2 3.0))
                     (not (= B2 2.0))
                     (not (= B2 1.0))
                     (= P G1))
                (and (= O B2)
                     (not (= B2 0.0))
                     (= B2 6.0)
                     (not (= B2 5.0))
                     (not (= B2 4.0))
                     (not (= B2 3.0))
                     (not (= B2 2.0))
                     (not (= B2 1.0))
                     (= P I1))))
      (a!46 (and (not A)
                 B
                 (not E)
                 (not G)
                 (not F)
                 D
                 (not C)
                 (not R2)
                 (= K J)
                 (= M L)
                 (= O N)
                 (= Q P)
                 (= S R)
                 (= W V)
                 (= Y X)
                 (= A1 Z)
                 (= C1 B1)
                 (= E1 D1)
                 (= G1 F1)
                 (= P1 H)
                 (not (= P1 0.0))
                 (not (= P1 6.0))
                 (not (= P1 5.0))
                 (not (= P1 4.0))
                 (not (= P1 3.0))
                 (not (= P1 2.0))
                 (not (= P1 1.0))
                 (= I1 H1)
                 (= K1 J1)
                 (= O1 N1)
                 (= S1 R1)
                 (= U1 T1)
                 (= W1 V1)
                 (= Y1 X1)
                 (= A2 Z1)
                 (= C2 B2)
                 (= U T)
                 (= E2 D2)
                 (= G2 F2)
                 (= I2 H2)
                 (= I H)
                 (= (+ L1 (* (- 1.0) H)) 1.0))))
(let ((a!4 (and (or (and (or a!1 a!2) (= E1 M2)) a!3) (= C1 N2)))
      (a!27 (and (or (and (or a!24 a!25) (= E1 D1)) a!26) (= C1 B1)))
      (a!42 (or (and a!41 (not (<= R A2)) (= O X1) (= R Z1) (= P R))
                (and a!41 (<= R A2) (= Y1 X1) (= A2 Z1) (= P R)))))
(let ((a!7 (and (or (and (or a!4 a!5) (= A1 O2)) a!6) (= W P2)))
      (a!30 (and (or (and (or a!27 a!28) (= A1 Z)) a!29) (= W V)))
      (a!43 (and (not A)
                 B
                 E
                 (not G)
                 F
                 (not D)
                 C
                 (not R2)
                 a!42
                 (not (<= 7.0 N))
                 (= K J)
                 (= M L)
                 (= W V)
                 (= Y X)
                 (= A1 Z)
                 (= C1 B1)
                 (= E1 D1)
                 (= G1 F1)
                 (= I1 H1)
                 (= M1 L1)
                 (= K1 J1)
                 (= O1 N1)
                 (= Q1 P1)
                 (= S1 R1)
                 (= U1 T1)
                 (= W1 V1)
                 (= U T)
                 (= E2 D2)
                 (= G2 F2)
                 (= I2 H2)
                 (= I H)
                 (= (+ O (* (- 1.0) N)) (- 1.0))))
      (a!44 (and (not A)
                 B
                 E
                 (not G)
                 F
                 D
                 C
                 (not R2)
                 a!42
                 (<= 7.0 N)
                 (= K J)
                 (= M L)
                 (= W V)
                 (= Y X)
                 (not (= X1 J1))
                 (= A1 Z)
                 (= C1 B1)
                 (= E1 D1)
                 (= G1 F1)
                 (= I1 H1)
                 (= M1 L1)
                 (= K1 J1)
                 (= O1 N1)
                 (= Q1 P1)
                 (= S1 R1)
                 (= U1 T1)
                 (= W1 V1)
                 (= U T)
                 (= E2 D2)
                 (= G2 F2)
                 (= I2 H2)
                 (= I H)
                 (= (+ O (* (- 1.0) N)) (- 1.0)))))
(let ((a!11 (and (or (and (or a!7 a!8) (= T J2)) a!9)
                 a!10
                 (<= 7.0 I)
                 (= R1 0.0)
                 (= L R1)
                 (= L J1)
                 (= J J2)
                 (= (+ I (* (- 1.0) H)) 1.0)))
      (a!12 (and (or (and (or a!7 a!8) (= T J2)) a!9)
                 a!10
                 (<= 7.0 I)
                 (not (= R1 0.0))
                 (= R1 1.0)
                 (= L R1)
                 (= L J1)
                 (= J P2)
                 (= (+ I (* (- 1.0) H)) 1.0)))
      (a!13 (and (or (and (or a!7 a!8) (= T J2)) a!9)
                 a!10
                 (<= 7.0 I)
                 (not (= R1 0.0))
                 (= R1 2.0)
                 (not (= R1 1.0))
                 (= L R1)
                 (= L J1)
                 (= J O2)
                 (= (+ I (* (- 1.0) H)) 1.0)))
      (a!14 (and (or (and (or a!7 a!8) (= T J2)) a!9)
                 a!10
                 (<= 7.0 I)
                 (not (= R1 0.0))
                 (= R1 3.0)
                 (not (= R1 2.0))
                 (not (= R1 1.0))
                 (= L R1)
                 (= L J1)
                 (= J N2)
                 (= (+ I (* (- 1.0) H)) 1.0)))
      (a!15 (and (or (and (or a!7 a!8) (= T J2)) a!9)
                 a!10
                 (<= 7.0 I)
                 (not (= R1 0.0))
                 (= R1 4.0)
                 (not (= R1 3.0))
                 (not (= R1 2.0))
                 (not (= R1 1.0))
                 (= L R1)
                 (= L J1)
                 (= J M2)
                 (= (+ I (* (- 1.0) H)) 1.0)))
      (a!16 (and (or (and (or a!7 a!8) (= T J2)) a!9)
                 a!10
                 (<= 7.0 I)
                 (not (= R1 0.0))
                 (= R1 5.0)
                 (not (= R1 4.0))
                 (not (= R1 3.0))
                 (not (= R1 2.0))
                 (not (= R1 1.0))
                 (= L R1)
                 (= L J1)
                 (= J L2)
                 (= (+ I (* (- 1.0) H)) 1.0)))
      (a!17 (and (or (and (or a!7 a!8) (= T J2)) a!9)
                 a!10
                 (<= 7.0 I)
                 (not (= R1 0.0))
                 (= R1 6.0)
                 (not (= R1 5.0))
                 (not (= R1 4.0))
                 (not (= R1 3.0))
                 (not (= R1 2.0))
                 (not (= R1 1.0))
                 (= L R1)
                 (= L J1)
                 (= J K2)
                 (= (+ I (* (- 1.0) H)) 1.0)))
      (a!33 (and (not A)
                 B
                 (not E)
                 (not G)
                 (not F)
                 (not D)
                 C
                 (not R2)
                 (or (and (or a!30 a!31) (= U T)) a!32)
                 (not (<= 7.0 I))
                 (= K J)
                 (= M L)
                 (= O N)
                 (= Q P)
                 (= S R)
                 (= Y X)
                 (= K1 J1)
                 (= O1 N1)
                 (= S1 R1)
                 (= U1 T1)
                 (= W1 V1)
                 (= Y1 X1)
                 (= A2 Z1)
                 (= C2 B2)
                 (= E2 D2)
                 (= G2 F2)
                 (= I2 H2)
                 (= (+ I (* (- 1.0) H)) 1.0)))
      (a!34 (and (or (and (or a!30 a!31) (= U T)) a!32)
                 a!10
                 (<= 7.0 I)
                 (= R1 0.0)
                 (= U J)
                 (= L R1)
                 (= L J1)
                 (= (+ I (* (- 1.0) H)) 1.0)))
      (a!35 (and (or (and (or a!30 a!31) (= U T)) a!32)
                 a!10
                 (<= 7.0 I)
                 (not (= R1 0.0))
                 (= R1 1.0)
                 (= L R1)
                 (= L J1)
                 (= J V)
                 (= (+ I (* (- 1.0) H)) 1.0)))
      (a!36 (and (or (and (or a!30 a!31) (= U T)) a!32)
                 a!10
                 (<= 7.0 I)
                 (not (= R1 0.0))
                 (= R1 2.0)
                 (not (= R1 1.0))
                 (= L R1)
                 (= L J1)
                 (= J Z)
                 (= (+ I (* (- 1.0) H)) 1.0)))
      (a!37 (and (or (and (or a!30 a!31) (= U T)) a!32)
                 a!10
                 (<= 7.0 I)
                 (not (= R1 0.0))
                 (= R1 3.0)
                 (not (= R1 2.0))
                 (not (= R1 1.0))
                 (= L R1)
                 (= L J1)
                 (= J B1)
                 (= (+ I (* (- 1.0) H)) 1.0)))
      (a!38 (and (or (and (or a!30 a!31) (= U T)) a!32)
                 a!10
                 (<= 7.0 I)
                 (not (= R1 0.0))
                 (= R1 4.0)
                 (not (= R1 3.0))
                 (not (= R1 2.0))
                 (not (= R1 1.0))
                 (= L R1)
                 (= L J1)
                 (= J D1)
                 (= (+ I (* (- 1.0) H)) 1.0)))
      (a!39 (and (or (and (or a!30 a!31) (= U T)) a!32)
                 a!10
                 (<= 7.0 I)
                 (not (= R1 0.0))
                 (= R1 5.0)
                 (not (= R1 4.0))
                 (not (= R1 3.0))
                 (not (= R1 2.0))
                 (not (= R1 1.0))
                 (= L R1)
                 (= L J1)
                 (= J F1)
                 (= (+ I (* (- 1.0) H)) 1.0)))
      (a!40 (and (or (and (or a!30 a!31) (= U T)) a!32)
                 a!10
                 (<= 7.0 I)
                 (not (= R1 0.0))
                 (= R1 6.0)
                 (not (= R1 5.0))
                 (not (= R1 4.0))
                 (not (= R1 3.0))
                 (not (= R1 2.0))
                 (not (= R1 1.0))
                 (= L R1)
                 (= L J1)
                 (= J H1)
                 (= (+ I (* (- 1.0) H)) 1.0)))
      (a!45 (and (not A)
                 B
                 (not E)
                 (not G)
                 (not F)
                 D
                 C
                 (not R2)
                 (or (and (or a!30 a!31) (= U T)) a!32)
                 a!10
                 (<= 7.0 I)
                 (= K J)
                 (= O N)
                 (= Q P)
                 (= S R)
                 (= Y X)
                 (not (= R1 0.0))
                 (not (= R1 6.0))
                 (not (= R1 5.0))
                 (not (= R1 4.0))
                 (not (= R1 3.0))
                 (not (= R1 2.0))
                 (not (= R1 1.0))
                 (= K1 J1)
                 (= O1 N1)
                 (= U1 T1)
                 (= W1 V1)
                 (= Y1 X1)
                 (= A2 Z1)
                 (= C2 B2)
                 (= E2 D2)
                 (= G2 F2)
                 (= I2 H2)
                 (= L R1)
                 (= L J1)
                 (= (+ I (* (- 1.0) H)) 1.0))))
(let ((a!18 (or (and (or a!11 a!12 a!13 a!14 a!15 a!16 a!17)
                     (= V1 H2)
                     (not (= T1 0.0))
                     (= T1 5.0)
                     (not (= T1 4.0))
                     (not (= T1 3.0))
                     (not (= T1 2.0))
                     (not (= T1 1.0))
                     (= N1 K2)
                     (= N1 V1)
                     (= F1 H2)
                     (= L T1)
                     (= J F2))
                (and (or a!11 a!12 a!13 a!14 a!15 a!16 a!17)
                     (= V1 H2)
                     (not (= T1 0.0))
                     (= T1 6.0)
                     (not (= T1 5.0))
                     (not (= T1 4.0))
                     (not (= T1 3.0))
                     (not (= T1 2.0))
                     (not (= T1 1.0))
                     (= N1 K2)
                     (= N1 V1)
                     (= F1 L2)
                     (= L T1)
                     (= J F2)))))
(let ((a!19 (or (and a!18 (= D1 M2))
                (and (or a!11 a!12 a!13 a!14 a!15 a!16 a!17)
                     (= V1 H2)
                     (not (= T1 0.0))
                     (= T1 4.0)
                     (not (= T1 3.0))
                     (not (= T1 2.0))
                     (not (= T1 1.0))
                     (= N1 K2)
                     (= N1 V1)
                     (= F1 L2)
                     (= D1 H2)
                     (= L T1)
                     (= J F2)))))
(let ((a!20 (or (and a!19 (= B1 N2))
                (and (or a!11 a!12 a!13 a!14 a!15 a!16 a!17)
                     (= V1 H2)
                     (not (= T1 0.0))
                     (= T1 3.0)
                     (not (= T1 2.0))
                     (not (= T1 1.0))
                     (= N1 K2)
                     (= N1 V1)
                     (= F1 L2)
                     (= D1 M2)
                     (= B1 H2)
                     (= L T1)
                     (= J F2)))))
(let ((a!21 (or (and a!20 (= Z O2))
                (and (or a!11 a!12 a!13 a!14 a!15 a!16 a!17)
                     (= V1 H2)
                     (not (= T1 0.0))
                     (= T1 2.0)
                     (not (= T1 1.0))
                     (= N1 K2)
                     (= N1 V1)
                     (= F1 L2)
                     (= D1 M2)
                     (= B1 N2)
                     (= Z H2)
                     (= L T1)
                     (= J F2)))))
(let ((a!22 (or (and a!21 (= V P2))
                (and (or a!11 a!12 a!13 a!14 a!15 a!16 a!17)
                     (= V1 H2)
                     (not (= T1 0.0))
                     (= T1 1.0)
                     (= N1 K2)
                     (= N1 V1)
                     (= F1 L2)
                     (= D1 M2)
                     (= B1 N2)
                     (= Z O2)
                     (= V H2)
                     (= L T1)
                     (= J F2)))))
(let ((a!23 (and (not A)
                 B
                 (not E)
                 (not G)
                 F
                 (not D)
                 C
                 (not R2)
                 (or (and a!22 (= U J2))
                     (and (or a!11 a!12 a!13 a!14 a!15 a!16 a!17)
                          (= V1 H2)
                          (= T1 0.0)
                          (= N1 K2)
                          (= N1 V1)
                          (= F1 L2)
                          (= D1 M2)
                          (= B1 N2)
                          (= Z O2)
                          (= V P2)
                          (= U H2)
                          (= L T1)
                          (= J F2)))
                 (= Q P)
                 (= S R)
                 (= Z1 0.0)
                 (= X1 0.0)
                 (= K1 J1)
                 (= X F2)
                 (= X H1)
                 (= C2 B2)
                 (= E2 D2)
                 (= N 0.0))))
  (or (and (not A) B (not E) G (not F) (not D) C R2)
      a!23
      a!33
      (and (not A)
           B
           (not E)
           (not G)
           F
           (not D)
           (not C)
           (not R2)
           (or a!34 a!35 a!36 a!37 a!38 a!39 a!40)
           (= O N)
           (= Q P)
           (= S R)
           (= Y X)
           (= V1 H2)
           (not (= T1 0.0))
           (not (= T1 6.0))
           (not (= T1 5.0))
           (not (= T1 4.0))
           (not (= T1 3.0))
           (not (= T1 2.0))
           (not (= T1 1.0))
           (= N1 V1)
           (= K1 J1)
           (= H1 N1)
           (= Y1 X1)
           (= A2 Z1)
           (= C2 B2)
           (= E2 D2)
           (= L T1)
           (= J F2))
      a!43
      a!44
      (and (not A)
           (not B)
           (not E)
           (not G)
           (not F)
           (not D)
           C
           (not R2)
           (= K J)
           (= M L)
           (= O N)
           (= Q P)
           (= S R)
           (= W V)
           (= Y X)
           (= A1 Z)
           (= C1 B1)
           (= E1 D1)
           (= G1 F1)
           (= I1 H1)
           (= M1 L1)
           (= K1 Q2)
           (= O1 N1)
           (= Q1 P1)
           (= S1 R1)
           (= U1 T1)
           (= W1 V1)
           (= Y1 X1)
           (= A2 Z1)
           (= C2 B2)
           (= U 0.0)
           (= E2 D2)
           (= G2 F2)
           (= I2 H2)
           (= I 0.0))
      (and (not A)
           (not B)
           E
           G
           (not F)
           (not D)
           C
           (not R2)
           (= K J)
           (= M L)
           (= O N)
           (= Q P)
           (= S R)
           (= W V)
           (= Y X)
           (= A1 Z)
           (= C1 B1)
           (= E1 D1)
           (= G1 F1)
           (= I1 H1)
           (= M1 L1)
           (= K1 J1)
           (= O1 N1)
           (= Q1 P1)
           (= S1 R1)
           (= U1 T1)
           (= W1 V1)
           (= Y1 X1)
           (= A2 Z1)
           (= C2 B2)
           (= U T)
           (= E2 D2)
           (= G2 F2)
           (= I2 H2)
           (= I H))
      (and A
           (not B)
           (not E)
           G
           (not F)
           (not D)
           C
           (not R2)
           (= K J)
           (= M L)
           (= O N)
           (= Q P)
           (= S R)
           (= W V)
           (= Y X)
           (= A1 Z)
           (= C1 B1)
           (= E1 D1)
           (= G1 F1)
           (= I1 H1)
           (= M1 L1)
           (= K1 J1)
           (= O1 N1)
           (= Q1 P1)
           (= S1 R1)
           (= U1 T1)
           (= W1 V1)
           (= Y1 X1)
           (= A2 Z1)
           (= C2 B2)
           (= U T)
           (= E2 D2)
           (= G2 F2)
           (= I2 H2)
           (= I H))
      (and A
           (not B)
           E
           G
           (not F)
           (not D)
           C
           (not R2)
           (= K J)
           (= M L)
           (= O N)
           (= Q P)
           (= S R)
           (= W V)
           (= Y X)
           (= A1 Z)
           (= C1 B1)
           (= E1 D1)
           (= G1 F1)
           (= I1 H1)
           (= M1 L1)
           (= K1 J1)
           (= O1 N1)
           (= Q1 P1)
           (= S1 R1)
           (= U1 T1)
           (= W1 V1)
           (= Y1 X1)
           (= A2 Z1)
           (= C2 B2)
           (= U T)
           (= E2 D2)
           (= G2 F2)
           (= I2 H2)
           (= I H))
      (and A
           B
           (not E)
           G
           (not F)
           (not D)
           C
           (not R2)
           (= K J)
           (= M L)
           (= O N)
           (= Q P)
           (= S R)
           (= W V)
           (= Y X)
           (= A1 Z)
           (= C1 B1)
           (= E1 D1)
           (= G1 F1)
           (= I1 H1)
           (= M1 L1)
           (= K1 J1)
           (= O1 N1)
           (= Q1 P1)
           (= S1 R1)
           (= U1 T1)
           (= W1 V1)
           (= Y1 X1)
           (= A2 Z1)
           (= C2 B2)
           (= U T)
           (= E2 D2)
           (= G2 F2)
           (= I2 H2)
           (= I H))
      (and A
           B
           E
           G
           (not F)
           (not D)
           C
           (not R2)
           (= K J)
           (= M L)
           (= O N)
           (= Q P)
           (= S R)
           (= W V)
           (= Y X)
           (= A1 Z)
           (= C1 B1)
           (= E1 D1)
           (= G1 F1)
           (= I1 H1)
           (= M1 L1)
           (= K1 J1)
           (= O1 N1)
           (= Q1 P1)
           (= S1 R1)
           (= U1 T1)
           (= W1 V1)
           (= Y1 X1)
           (= A2 Z1)
           (= C2 B2)
           (= U T)
           (= E2 D2)
           (= G2 F2)
           (= I2 H2)
           (= I H))
      a!45
      (and (not A)
           B
           E
           (not G)
           F
           D
           (not C)
           (not R2)
           (= K J)
           (= M L)
           (= O B2)
           (= O N)
           (= Q P)
           (= S R)
           (not (= B2 0.0))
           (not (= B2 6.0))
           (not (= B2 5.0))
           (not (= B2 4.0))
           (not (= B2 3.0))
           (not (= B2 2.0))
           (not (= B2 1.0))
           (= W V)
           (= Y X)
           (= A1 Z)
           (= C1 B1)
           (= E1 D1)
           (= G1 F1)
           (= I1 H1)
           (= M1 L1)
           (= K1 J1)
           (= O1 N1)
           (= Q1 P1)
           (= S1 R1)
           (= U1 T1)
           (= W1 V1)
           (= Y1 X1)
           (= A2 Z1)
           (= U T)
           (= E2 D2)
           (= G2 F2)
           (= I2 H2)
           (= I H))
      a!46)))))))))))
      )
      (state C
       D
       F
       G
       J
       L
       N
       P
       R
       V
       X
       Z
       B1
       D1
       F1
       H1
       L1
       N1
       P1
       R1
       T1
       V1
       X1
       Z1
       B2
       D2
       F2
       H2
       I
       U
       K1)
    )
  )
)
(assert
  (forall ( (A Bool) (B Bool) (C Bool) (D Real) (E Real) (F Real) (G Real) (H Real) (I Real) (J Real) (K Real) (L Real) (M Real) (N Real) (O Real) (P Real) (Q Real) (R Real) (S Real) (T Real) (U Real) (V Real) (W Real) (X Real) (Y Real) (Z Real) (A1 Real) (B1 Real) (C1 Real) (D1 Real) (E1 Bool) ) 
    (=>
      (and
        (state B A C E1 E F G H I K L M N O P Q S T U V W X Y Z A1 B1 C1 D1 D J R)
        (and (= B true) (not C) (= E1 true) (not A))
      )
      false
    )
  )
)

(check-sat)
(exit)
